;; sequence(s): A117560
;; terms: 2 11 29 59 104 167 251 359 494 659 857 1091 1364 1679 2039 2447 2906 3419 3989 4619
;; small program: ((1 + x) * loop(2 + (x + y), x, 2)) + x
;; fast program: ((loop((x * x) * x, 1, 2 + x) - x) div 2) - 2
(set-logic UFNIA)
(define-fun divf ((a Int) (b Int)) Int (ite (< 0 b) (div a b) (div (- a) (- b))))
(declare-fun f0 (Int Int) Int)
(declare-fun g0 (Int) Int)
(declare-fun h0 () Int)
(declare-fun u0 (Int Int) Int)
(declare-fun v0 (Int) Int)
(declare-fun small (Int) Int)
(declare-fun f1 (Int) Int)
(declare-fun g1 () Int)
(declare-fun h1 (Int) Int)
(declare-fun u1 (Int Int) Int)
(declare-fun v1 (Int) Int)
(declare-fun fast (Int) Int)
(assert (forall ((x Int) (y Int)) (= (f0 x y) (+ 2 (+ x y)))))
(assert (forall ((x Int)) (= (g0 x) x)))
(assert (= h0 2))
(assert (forall ((x Int) (y Int)) (= (u0 x y) (ite (<= x 0) y (f0 (u0 (- x 1) y) x)))))
(assert (forall ((x Int)) (= (v0 x) (u0 (g0 x) h0))))
(assert (forall ((x Int)) (= (small x) (+ (* (+ 1 x) (v0 x)) x))))
(assert (forall ((x Int)) (= (f1 x) (* (* x x) x))))
(assert (= g1 1))
(assert (forall ((x Int)) (= (h1 x) (+ 2 x))))
(assert (forall ((x Int) (y Int)) (= (u1 x y) (ite (<= x 0) y (f1 (u1 (- x 1) y))))))
(assert (forall ((x Int)) (= (v1 x) (u1 g1 (h1 x)))))
(assert (forall ((x Int)) (= (fast x) (- (divf (- (v1 x) x) 2) 2))))
(assert (exists ((c Int)) (and (>= c 0) (not (= (small c) (fast c))))))
(check-sat)
